c File: instances/18_0.40_2.col
c
c Description: Random graph of size 18 vertices and P(0.39999999999999997) of edges between any two vertices.
p col 18 153
e 1 3
e 1 7
e 1 10
e 1 12
e 1 13
e 1 14
e 1 18
e 2 7
e 2 9
e 2 12
e 2 13
e 2 15
e 3 7
e 3 9
e 3 13
e 3 15
e 3 16
e 3 17
e 3 18
e 4 5
e 4 6
e 4 7
e 4 10
e 4 11
e 4 13
e 4 15
e 5 6
e 5 7
e 5 9
e 5 10
e 5 12
e 5 16
e 5 17
e 5 18
e 6 9
e 6 10
e 6 11
e 6 14
e 6 16
e 6 18
e 7 8
e 7 10
e 7 11
e 7 13
e 7 14
e 7 15
e 8 9
e 8 11
e 8 12
e 8 13
e 8 14
e 8 15
e 8 18
e 9 10
e 9 18
e 10 12
e 10 13
e 10 14
e 10 15
e 10 16
e 11 14
e 11 15
e 11 16
e 11 18
e 12 14
e 12 15
e 13 15
e 13 16
e 13 18
e 14 17
e 16 17
e 16 18